# Objective value = 46
WA1n 0
WA1p 0
WA2n 0
WA2p 1
WB1n 1
WB1p 0
WC1n 0
WC1p 1
WD1n 0
WD1p 1
WD2n 0
WD2p 1
WE1n 0
WE1p 2
WF1n 4
WF1p 0
WF2n 1
WF2p 0
WG1n 0
WG1p 6
WG2n 0
WG2p 1
WH1n 0
WH1p 11
WT1n 0
WT1p 12
5 7
a 0
b 1
c 0
d 1
e 1
f 1
g 1
h 0
i 0
j 1
k 1
l 1
m 1
